Solver command line: ['C:\\gurobi1002\\win64\\bin\\gurobi.bat']

Set parameter Username
Academic license - for non-commercial use only - expires 2024-08-20
Read LP format model from file C:\Users\mhafeman\AppData\Local\Temp\tmpcss6v3wk.pyomo.lp
Reading time = 1.72 seconds
obj: 385441 rows, 332879 columns, 893506 nonzeros
Gurobi Optimizer version 10.0.2 build v10.0.2rc0 (win64)

CPU model: AMD Ryzen 7 3800X 8-Core Processor, instruction set [SSE2|AVX|AVX2]
Thread count: 8 physical cores, 16 logical processors, using up to 16 threads

Optimize a model with 385441 rows, 332879 columns and 893506 nonzeros
Model fingerprint: 0x551f2570
Model has 8759 quadratic constraints
Variable types: 254040 continuous, 78839 integer (61320 binary)
Coefficient statistics:
  Matrix range     [1e-04, 3e+02]
  QMatrix range    [1e+00, 1e+00]
  Objective range  [1e-02, 3e+02]
  Bounds range     [1e+00, 3e+00]
  RHS range        [1e-03, 3e+03]
Presolve removed 294476 rows and 227391 columns
Presolve time: 1.39s
Presolved: 90965 rows, 105488 columns, 247924 nonzeros
Variable types: 63003 continuous, 42485 integer (42485 binary)
Deterministic concurrent LP optimizer: primal and dual simplex
Showing first log only...

Concurrent spin time: 0.00s

Solved with dual simplex

Root relaxation: objective -5.504686e+07, 24810 iterations, 0.63 seconds (0.63 work units)

    Nodes    |    Current Node    |     Objective Bounds      |     Work
 Expl Unexpl |  Obj  Depth IntInf | Incumbent    BestBd   Gap | It/Node Time

     0     0 -5.505e+07    0  226          - -5.505e+07      -     -    3s
H    0     0                    -5.50438e+07 -5.505e+07  0.01%     -    3s

Explored 1 nodes (42415 simplex iterations) in 3.32 seconds (3.28 work units)
Thread count was 16 (of 16 available processors)

Solution count 1: -5.50438e+07 

Optimal solution found (tolerance 1.00e-04)
Best objective -5.504382463252e+07, best bound -5.504686007586e+07, gap 0.0055%

